(set-option :produce-models true)
(set-logic QF_LRA)
(set-info :notes | Strip-packing problem.|)
(declare-fun x0 () Real)
(declare-fun y0 () Real)
(declare-fun x1 () Real)
(declare-fun y1 () Real)
(declare-fun x2 () Real)
(declare-fun y2 () Real)
(declare-fun x3 () Real)
(declare-fun y3 () Real)
(declare-fun x4 () Real)
(declare-fun y4 () Real)
(declare-fun x5 () Real)
(declare-fun y5 () Real)
(declare-fun x6 () Real)
(declare-fun y6 () Real)
(declare-fun x7 () Real)
(declare-fun y7 () Real)
(declare-fun x8 () Real)
(declare-fun y8 () Real)
(declare-fun x9 () Real)
(declare-fun y9 () Real)
(declare-fun x10 () Real)
(declare-fun y10 () Real)
(declare-fun x11 () Real)
(declare-fun y11 () Real)
(declare-fun x12 () Real)
(declare-fun y12 () Real)
(declare-fun x13 () Real)
(declare-fun y13 () Real)
(declare-fun x14 () Real)
(declare-fun y14 () Real)
(declare-fun z () Real)
(declare-fun c () Real)
(assert (and (= c z) (and (>= x0 0) 
(and (>= y0 0) 
(and (>= x1 0) 
(and (>= y1 0) 
(and (>= x2 0) 
(and (>= y2 0) 
(and (>= x3 0) 
(and (>= y3 0) 
(and (>= x4 0) 
(and (>= y4 0) 
(and (>= x5 0) 
(and (>= y5 0) 
(and (>= x6 0) 
(and (>= y6 0) 
(and (>= x7 0) 
(and (>= y7 0) 
(and (>= x8 0) 
(and (>= y8 0) 
(and (>= x9 0) 
(and (>= y9 0) 
(and (>= x10 0) 
(and (>= y10 0) 
(and (>= x11 0) 
(and (>= y11 0) 
(and (>= x12 0) 
(and (>= y12 0) 
(and (>= x13 0) 
(and (>= y13 0) 
(and (>= x14 0) 
(and (>= y14 0) 
(and (>= z 0) 
(and (>= c 0) 
(and (<= (+ x0 0.1575966322) z) 
(and (<= 0.9813956997 y0) 
(and (<= y0 1.9364916731) 
(and (<= x0 (- 4.33921298 0.1575966322)) 
(and (>= x0 0) 
(and (<= (+ x1 0.4910740836) z) 
(and (<= 0.9090220109 y1) 
(and (<= y1 1.9364916731) 
(and (<= x1 (- 4.33921298 0.4910740836)) 
(and (>= x1 0) 
(and (<= (+ x2 0.3335895289) z) 
(and (<= 0.8573996471 y2) 
(and (<= y2 1.9364916731) 
(and (<= x2 (- 4.33921298 0.3335895289)) 
(and (>= x2 0) 
(and (<= (+ x3 0.9891395569) z) 
(and (<= 0.6252455079 y3) 
(and (<= y3 1.9364916731) 
(and (<= x3 (- 4.33921298 0.9891395569)) 
(and (>= x3 0) 
(and (<= (+ x4 0.6630004072) z) 
(and (<= 0.5953857169 y4) 
(and (<= y4 1.9364916731) 
(and (<= x4 (- 4.33921298 0.6630004072)) 
(and (>= x4 0) 
(and (<= (+ x5 0.8546972053) z) 
(and (<= 0.5599452081 y5) 
(and (<= y5 1.9364916731) 
(and (<= x5 (- 4.33921298 0.8546972053)) 
(and (>= x5 0) 
(and (<= (+ x6 0.309407347) z) 
(and (<= 0.3985429613 y6) 
(and (<= y6 1.9364916731) 
(and (<= x6 (- 4.33921298 0.309407347)) 
(and (>= x6 0) 
(and (<= (+ x7 0.5254293213) z) 
(and (<= 0.3425274973 y7) 
(and (<= y7 1.9364916731) 
(and (<= x7 (- 4.33921298 0.5254293213)) 
(and (>= x7 0) 
(and (<= (+ x8 0.4418099522) z) 
(and (<= 0.3386789141 y8) 
(and (<= y8 1.9364916731) 
(and (<= x8 (- 4.33921298 0.4418099522)) 
(and (>= x8 0) 
(and (<= (+ x9 0.9253903664) z) 
(and (<= 0.3130544959 y9) 
(and (<= y9 1.9364916731) 
(and (<= x9 (- 4.33921298 0.9253903664)) 
(and (>= x9 0) 
(and (<= (+ x10 0.7259518605) z) 
(and (<= 0.1896519478 y10) 
(and (<= y10 1.9364916731) 
(and (<= x10 (- 4.33921298 0.7259518605)) 
(and (>= x10 0) 
(and (<= (+ x11 0.9411756726) z) 
(and (<= 0.1811798722 y11) 
(and (<= y11 1.9364916731) 
(and (<= x11 (- 4.33921298 0.9411756726)) 
(and (>= x11 0) 
(and (<= (+ x12 0.8377326776) z) 
(and (<= 0.0940270185 y12) 
(and (<= y12 1.9364916731) 
(and (<= x12 (- 4.33921298 0.8377326776)) 
(and (>= x12 0) 
(and (<= (+ x13 0.9392153038) z) 
(and (<= 0.0849663566 y13) 
(and (<= y13 1.9364916731) 
(and (<= x13 (- 4.33921298 0.9392153038)) 
(and (>= x13 0) 
(and (<= (+ x14 0.0128660096) z) 
(and (<= 0.0532869813 y14) 
(and (<= y14 1.9364916731) 
(and (<= x14 (- 4.33921298 0.0128660096)) 
(and (>= x14 0) 
(and (<= c 4.33921298) 
(and (or (<= (+ x0 0.1575966322) x1) (or (<= (+ x1 0.4910740836) x0) (or (>= (- y0 0.9813956997) y1) (or (>= (- y1 0.9090220109) y0))))) 
(and (or (<= (+ x0 0.1575966322) x2) (or (<= (+ x2 0.3335895289) x0) (or (>= (- y0 0.9813956997) y2) (or (>= (- y2 0.8573996471) y0))))) 
(and (or (<= (+ x0 0.1575966322) x3) (or (<= (+ x3 0.9891395569) x0) (or (>= (- y0 0.9813956997) y3) (or (>= (- y3 0.6252455079) y0))))) 
(and (or (<= (+ x0 0.1575966322) x4) (or (<= (+ x4 0.6630004072) x0) (or (>= (- y0 0.9813956997) y4) (or (>= (- y4 0.5953857169) y0))))) 
(and (or (<= (+ x0 0.1575966322) x5) (or (<= (+ x5 0.8546972053) x0) (or (>= (- y0 0.9813956997) y5) (or (>= (- y5 0.5599452081) y0))))) 
(and (or (<= (+ x0 0.1575966322) x6) (or (<= (+ x6 0.309407347) x0) (or (>= (- y0 0.9813956997) y6) (or (>= (- y6 0.3985429613) y0))))) 
(and (or (<= (+ x0 0.1575966322) x7) (or (<= (+ x7 0.5254293213) x0) (or (>= (- y0 0.9813956997) y7) (or (>= (- y7 0.3425274973) y0))))) 
(and (or (<= (+ x0 0.1575966322) x8) (or (<= (+ x8 0.4418099522) x0) (or (>= (- y0 0.9813956997) y8) (or (>= (- y8 0.3386789141) y0))))) 
(and (or (<= (+ x0 0.1575966322) x9) (or (<= (+ x9 0.9253903664) x0) (or (>= (- y0 0.9813956997) y9) (or (>= (- y9 0.3130544959) y0))))) 
(and (or (<= (+ x0 0.1575966322) x10) (or (<= (+ x10 0.7259518605) x0) (or (>= (- y0 0.9813956997) y10) (or (>= (- y10 0.1896519478) y0))))) 
(and (or (<= (+ x0 0.1575966322) x11) (or (<= (+ x11 0.9411756726) x0) (or (>= (- y0 0.9813956997) y11) (or (>= (- y11 0.1811798722) y0))))) 
(and (or (<= (+ x0 0.1575966322) x12) (or (<= (+ x12 0.8377326776) x0) (or (>= (- y0 0.9813956997) y12) (or (>= (- y12 0.0940270185) y0))))) 
(and (or (<= (+ x0 0.1575966322) x13) (or (<= (+ x13 0.9392153038) x0) (or (>= (- y0 0.9813956997) y13) (or (>= (- y13 0.0849663566) y0))))) 
(and (or (<= (+ x0 0.1575966322) x14) (or (<= (+ x14 0.0128660096) x0) (or (>= (- y0 0.9813956997) y14) (or (>= (- y14 0.0532869813) y0))))) 
(and (or (<= (+ x1 0.4910740836) x2) (or (<= (+ x2 0.3335895289) x1) (or (>= (- y1 0.9090220109) y2) (or (>= (- y2 0.8573996471) y1))))) 
(and (or (<= (+ x1 0.4910740836) x3) (or (<= (+ x3 0.9891395569) x1) (or (>= (- y1 0.9090220109) y3) (or (>= (- y3 0.6252455079) y1))))) 
(and (or (<= (+ x1 0.4910740836) x4) (or (<= (+ x4 0.6630004072) x1) (or (>= (- y1 0.9090220109) y4) (or (>= (- y4 0.5953857169) y1))))) 
(and (or (<= (+ x1 0.4910740836) x5) (or (<= (+ x5 0.8546972053) x1) (or (>= (- y1 0.9090220109) y5) (or (>= (- y5 0.5599452081) y1))))) 
(and (or (<= (+ x1 0.4910740836) x6) (or (<= (+ x6 0.309407347) x1) (or (>= (- y1 0.9090220109) y6) (or (>= (- y6 0.3985429613) y1))))) 
(and (or (<= (+ x1 0.4910740836) x7) (or (<= (+ x7 0.5254293213) x1) (or (>= (- y1 0.9090220109) y7) (or (>= (- y7 0.3425274973) y1))))) 
(and (or (<= (+ x1 0.4910740836) x8) (or (<= (+ x8 0.4418099522) x1) (or (>= (- y1 0.9090220109) y8) (or (>= (- y8 0.3386789141) y1))))) 
(and (or (<= (+ x1 0.4910740836) x9) (or (<= (+ x9 0.9253903664) x1) (or (>= (- y1 0.9090220109) y9) (or (>= (- y9 0.3130544959) y1))))) 
(and (or (<= (+ x1 0.4910740836) x10) (or (<= (+ x10 0.7259518605) x1) (or (>= (- y1 0.9090220109) y10) (or (>= (- y10 0.1896519478) y1))))) 
(and (or (<= (+ x1 0.4910740836) x11) (or (<= (+ x11 0.9411756726) x1) (or (>= (- y1 0.9090220109) y11) (or (>= (- y11 0.1811798722) y1))))) 
(and (or (<= (+ x1 0.4910740836) x12) (or (<= (+ x12 0.8377326776) x1) (or (>= (- y1 0.9090220109) y12) (or (>= (- y12 0.0940270185) y1))))) 
(and (or (<= (+ x1 0.4910740836) x13) (or (<= (+ x13 0.9392153038) x1) (or (>= (- y1 0.9090220109) y13) (or (>= (- y13 0.0849663566) y1))))) 
(and (or (<= (+ x1 0.4910740836) x14) (or (<= (+ x14 0.0128660096) x1) (or (>= (- y1 0.9090220109) y14) (or (>= (- y14 0.0532869813) y1))))) 
(and (or (<= (+ x2 0.3335895289) x3) (or (<= (+ x3 0.9891395569) x2) (or (>= (- y2 0.8573996471) y3) (or (>= (- y3 0.6252455079) y2))))) 
(and (or (<= (+ x2 0.3335895289) x4) (or (<= (+ x4 0.6630004072) x2) (or (>= (- y2 0.8573996471) y4) (or (>= (- y4 0.5953857169) y2))))) 
(and (or (<= (+ x2 0.3335895289) x5) (or (<= (+ x5 0.8546972053) x2) (or (>= (- y2 0.8573996471) y5) (or (>= (- y5 0.5599452081) y2))))) 
(and (or (<= (+ x2 0.3335895289) x6) (or (<= (+ x6 0.309407347) x2) (or (>= (- y2 0.8573996471) y6) (or (>= (- y6 0.3985429613) y2))))) 
(and (or (<= (+ x2 0.3335895289) x7) (or (<= (+ x7 0.5254293213) x2) (or (>= (- y2 0.8573996471) y7) (or (>= (- y7 0.3425274973) y2))))) 
(and (or (<= (+ x2 0.3335895289) x8) (or (<= (+ x8 0.4418099522) x2) (or (>= (- y2 0.8573996471) y8) (or (>= (- y8 0.3386789141) y2))))) 
(and (or (<= (+ x2 0.3335895289) x9) (or (<= (+ x9 0.9253903664) x2) (or (>= (- y2 0.8573996471) y9) (or (>= (- y9 0.3130544959) y2))))) 
(and (or (<= (+ x2 0.3335895289) x10) (or (<= (+ x10 0.7259518605) x2) (or (>= (- y2 0.8573996471) y10) (or (>= (- y10 0.1896519478) y2))))) 
(and (or (<= (+ x2 0.3335895289) x11) (or (<= (+ x11 0.9411756726) x2) (or (>= (- y2 0.8573996471) y11) (or (>= (- y11 0.1811798722) y2))))) 
(and (or (<= (+ x2 0.3335895289) x12) (or (<= (+ x12 0.8377326776) x2) (or (>= (- y2 0.8573996471) y12) (or (>= (- y12 0.0940270185) y2))))) 
(and (or (<= (+ x2 0.3335895289) x13) (or (<= (+ x13 0.9392153038) x2) (or (>= (- y2 0.8573996471) y13) (or (>= (- y13 0.0849663566) y2))))) 
(and (or (<= (+ x2 0.3335895289) x14) (or (<= (+ x14 0.0128660096) x2) (or (>= (- y2 0.8573996471) y14) (or (>= (- y14 0.0532869813) y2))))) 
(and (or (<= (+ x3 0.9891395569) x4) (or (<= (+ x4 0.6630004072) x3) (or (>= (- y3 0.6252455079) y4) (or (>= (- y4 0.5953857169) y3))))) 
(and (or (<= (+ x3 0.9891395569) x5) (or (<= (+ x5 0.8546972053) x3) (or (>= (- y3 0.6252455079) y5) (or (>= (- y5 0.5599452081) y3))))) 
(and (or (<= (+ x3 0.9891395569) x6) (or (<= (+ x6 0.309407347) x3) (or (>= (- y3 0.6252455079) y6) (or (>= (- y6 0.3985429613) y3))))) 
(and (or (<= (+ x3 0.9891395569) x7) (or (<= (+ x7 0.5254293213) x3) (or (>= (- y3 0.6252455079) y7) (or (>= (- y7 0.3425274973) y3))))) 
(and (or (<= (+ x3 0.9891395569) x8) (or (<= (+ x8 0.4418099522) x3) (or (>= (- y3 0.6252455079) y8) (or (>= (- y8 0.3386789141) y3))))) 
(and (or (<= (+ x3 0.9891395569) x9) (or (<= (+ x9 0.9253903664) x3) (or (>= (- y3 0.6252455079) y9) (or (>= (- y9 0.3130544959) y3))))) 
(and (or (<= (+ x3 0.9891395569) x10) (or (<= (+ x10 0.7259518605) x3) (or (>= (- y3 0.6252455079) y10) (or (>= (- y10 0.1896519478) y3))))) 
(and (or (<= (+ x3 0.9891395569) x11) (or (<= (+ x11 0.9411756726) x3) (or (>= (- y3 0.6252455079) y11) (or (>= (- y11 0.1811798722) y3))))) 
(and (or (<= (+ x3 0.9891395569) x12) (or (<= (+ x12 0.8377326776) x3) (or (>= (- y3 0.6252455079) y12) (or (>= (- y12 0.0940270185) y3))))) 
(and (or (<= (+ x3 0.9891395569) x13) (or (<= (+ x13 0.9392153038) x3) (or (>= (- y3 0.6252455079) y13) (or (>= (- y13 0.0849663566) y3))))) 
(and (or (<= (+ x3 0.9891395569) x14) (or (<= (+ x14 0.0128660096) x3) (or (>= (- y3 0.6252455079) y14) (or (>= (- y14 0.0532869813) y3))))) 
(and (or (<= (+ x4 0.6630004072) x5) (or (<= (+ x5 0.8546972053) x4) (or (>= (- y4 0.5953857169) y5) (or (>= (- y5 0.5599452081) y4))))) 
(and (or (<= (+ x4 0.6630004072) x6) (or (<= (+ x6 0.309407347) x4) (or (>= (- y4 0.5953857169) y6) (or (>= (- y6 0.3985429613) y4))))) 
(and (or (<= (+ x4 0.6630004072) x7) (or (<= (+ x7 0.5254293213) x4) (or (>= (- y4 0.5953857169) y7) (or (>= (- y7 0.3425274973) y4))))) 
(and (or (<= (+ x4 0.6630004072) x8) (or (<= (+ x8 0.4418099522) x4) (or (>= (- y4 0.5953857169) y8) (or (>= (- y8 0.3386789141) y4))))) 
(and (or (<= (+ x4 0.6630004072) x9) (or (<= (+ x9 0.9253903664) x4) (or (>= (- y4 0.5953857169) y9) (or (>= (- y9 0.3130544959) y4))))) 
(and (or (<= (+ x4 0.6630004072) x10) (or (<= (+ x10 0.7259518605) x4) (or (>= (- y4 0.5953857169) y10) (or (>= (- y10 0.1896519478) y4))))) 
(and (or (<= (+ x4 0.6630004072) x11) (or (<= (+ x11 0.9411756726) x4) (or (>= (- y4 0.5953857169) y11) (or (>= (- y11 0.1811798722) y4))))) 
(and (or (<= (+ x4 0.6630004072) x12) (or (<= (+ x12 0.8377326776) x4) (or (>= (- y4 0.5953857169) y12) (or (>= (- y12 0.0940270185) y4))))) 
(and (or (<= (+ x4 0.6630004072) x13) (or (<= (+ x13 0.9392153038) x4) (or (>= (- y4 0.5953857169) y13) (or (>= (- y13 0.0849663566) y4))))) 
(and (or (<= (+ x4 0.6630004072) x14) (or (<= (+ x14 0.0128660096) x4) (or (>= (- y4 0.5953857169) y14) (or (>= (- y14 0.0532869813) y4))))) 
(and (or (<= (+ x5 0.8546972053) x6) (or (<= (+ x6 0.309407347) x5) (or (>= (- y5 0.5599452081) y6) (or (>= (- y6 0.3985429613) y5))))) 
(and (or (<= (+ x5 0.8546972053) x7) (or (<= (+ x7 0.5254293213) x5) (or (>= (- y5 0.5599452081) y7) (or (>= (- y7 0.3425274973) y5))))) 
(and (or (<= (+ x5 0.8546972053) x8) (or (<= (+ x8 0.4418099522) x5) (or (>= (- y5 0.5599452081) y8) (or (>= (- y8 0.3386789141) y5))))) 
(and (or (<= (+ x5 0.8546972053) x9) (or (<= (+ x9 0.9253903664) x5) (or (>= (- y5 0.5599452081) y9) (or (>= (- y9 0.3130544959) y5))))) 
(and (or (<= (+ x5 0.8546972053) x10) (or (<= (+ x10 0.7259518605) x5) (or (>= (- y5 0.5599452081) y10) (or (>= (- y10 0.1896519478) y5))))) 
(and (or (<= (+ x5 0.8546972053) x11) (or (<= (+ x11 0.9411756726) x5) (or (>= (- y5 0.5599452081) y11) (or (>= (- y11 0.1811798722) y5))))) 
(and (or (<= (+ x5 0.8546972053) x12) (or (<= (+ x12 0.8377326776) x5) (or (>= (- y5 0.5599452081) y12) (or (>= (- y12 0.0940270185) y5))))) 
(and (or (<= (+ x5 0.8546972053) x13) (or (<= (+ x13 0.9392153038) x5) (or (>= (- y5 0.5599452081) y13) (or (>= (- y13 0.0849663566) y5))))) 
(and (or (<= (+ x5 0.8546972053) x14) (or (<= (+ x14 0.0128660096) x5) (or (>= (- y5 0.5599452081) y14) (or (>= (- y14 0.0532869813) y5))))) 
(and (or (<= (+ x6 0.309407347) x7) (or (<= (+ x7 0.5254293213) x6) (or (>= (- y6 0.3985429613) y7) (or (>= (- y7 0.3425274973) y6))))) 
(and (or (<= (+ x6 0.309407347) x8) (or (<= (+ x8 0.4418099522) x6) (or (>= (- y6 0.3985429613) y8) (or (>= (- y8 0.3386789141) y6))))) 
(and (or (<= (+ x6 0.309407347) x9) (or (<= (+ x9 0.9253903664) x6) (or (>= (- y6 0.3985429613) y9) (or (>= (- y9 0.3130544959) y6))))) 
(and (or (<= (+ x6 0.309407347) x10) (or (<= (+ x10 0.7259518605) x6) (or (>= (- y6 0.3985429613) y10) (or (>= (- y10 0.1896519478) y6))))) 
(and (or (<= (+ x6 0.309407347) x11) (or (<= (+ x11 0.9411756726) x6) (or (>= (- y6 0.3985429613) y11) (or (>= (- y11 0.1811798722) y6))))) 
(and (or (<= (+ x6 0.309407347) x12) (or (<= (+ x12 0.8377326776) x6) (or (>= (- y6 0.3985429613) y12) (or (>= (- y12 0.0940270185) y6))))) 
(and (or (<= (+ x6 0.309407347) x13) (or (<= (+ x13 0.9392153038) x6) (or (>= (- y6 0.3985429613) y13) (or (>= (- y13 0.0849663566) y6))))) 
(and (or (<= (+ x6 0.309407347) x14) (or (<= (+ x14 0.0128660096) x6) (or (>= (- y6 0.3985429613) y14) (or (>= (- y14 0.0532869813) y6))))) 
(and (or (<= (+ x7 0.5254293213) x8) (or (<= (+ x8 0.4418099522) x7) (or (>= (- y7 0.3425274973) y8) (or (>= (- y8 0.3386789141) y7))))) 
(and (or (<= (+ x7 0.5254293213) x9) (or (<= (+ x9 0.9253903664) x7) (or (>= (- y7 0.3425274973) y9) (or (>= (- y9 0.3130544959) y7))))) 
(and (or (<= (+ x7 0.5254293213) x10) (or (<= (+ x10 0.7259518605) x7) (or (>= (- y7 0.3425274973) y10) (or (>= (- y10 0.1896519478) y7))))) 
(and (or (<= (+ x7 0.5254293213) x11) (or (<= (+ x11 0.9411756726) x7) (or (>= (- y7 0.3425274973) y11) (or (>= (- y11 0.1811798722) y7))))) 
(and (or (<= (+ x7 0.5254293213) x12) (or (<= (+ x12 0.8377326776) x7) (or (>= (- y7 0.3425274973) y12) (or (>= (- y12 0.0940270185) y7))))) 
(and (or (<= (+ x7 0.5254293213) x13) (or (<= (+ x13 0.9392153038) x7) (or (>= (- y7 0.3425274973) y13) (or (>= (- y13 0.0849663566) y7))))) 
(and (or (<= (+ x7 0.5254293213) x14) (or (<= (+ x14 0.0128660096) x7) (or (>= (- y7 0.3425274973) y14) (or (>= (- y14 0.0532869813) y7))))) 
(and (or (<= (+ x8 0.4418099522) x9) (or (<= (+ x9 0.9253903664) x8) (or (>= (- y8 0.3386789141) y9) (or (>= (- y9 0.3130544959) y8))))) 
(and (or (<= (+ x8 0.4418099522) x10) (or (<= (+ x10 0.7259518605) x8) (or (>= (- y8 0.3386789141) y10) (or (>= (- y10 0.1896519478) y8))))) 
(and (or (<= (+ x8 0.4418099522) x11) (or (<= (+ x11 0.9411756726) x8) (or (>= (- y8 0.3386789141) y11) (or (>= (- y11 0.1811798722) y8))))) 
(and (or (<= (+ x8 0.4418099522) x12) (or (<= (+ x12 0.8377326776) x8) (or (>= (- y8 0.3386789141) y12) (or (>= (- y12 0.0940270185) y8))))) 
(and (or (<= (+ x8 0.4418099522) x13) (or (<= (+ x13 0.9392153038) x8) (or (>= (- y8 0.3386789141) y13) (or (>= (- y13 0.0849663566) y8))))) 
(and (or (<= (+ x8 0.4418099522) x14) (or (<= (+ x14 0.0128660096) x8) (or (>= (- y8 0.3386789141) y14) (or (>= (- y14 0.0532869813) y8))))) 
(and (or (<= (+ x9 0.9253903664) x10) (or (<= (+ x10 0.7259518605) x9) (or (>= (- y9 0.3130544959) y10) (or (>= (- y10 0.1896519478) y9))))) 
(and (or (<= (+ x9 0.9253903664) x11) (or (<= (+ x11 0.9411756726) x9) (or (>= (- y9 0.3130544959) y11) (or (>= (- y11 0.1811798722) y9))))) 
(and (or (<= (+ x9 0.9253903664) x12) (or (<= (+ x12 0.8377326776) x9) (or (>= (- y9 0.3130544959) y12) (or (>= (- y12 0.0940270185) y9))))) 
(and (or (<= (+ x9 0.9253903664) x13) (or (<= (+ x13 0.9392153038) x9) (or (>= (- y9 0.3130544959) y13) (or (>= (- y13 0.0849663566) y9))))) 
(and (or (<= (+ x9 0.9253903664) x14) (or (<= (+ x14 0.0128660096) x9) (or (>= (- y9 0.3130544959) y14) (or (>= (- y14 0.0532869813) y9))))) 
(and (or (<= (+ x10 0.7259518605) x11) (or (<= (+ x11 0.9411756726) x10) (or (>= (- y10 0.1896519478) y11) (or (>= (- y11 0.1811798722) y10))))) 
(and (or (<= (+ x10 0.7259518605) x12) (or (<= (+ x12 0.8377326776) x10) (or (>= (- y10 0.1896519478) y12) (or (>= (- y12 0.0940270185) y10))))) 
(and (or (<= (+ x10 0.7259518605) x13) (or (<= (+ x13 0.9392153038) x10) (or (>= (- y10 0.1896519478) y13) (or (>= (- y13 0.0849663566) y10))))) 
(and (or (<= (+ x10 0.7259518605) x14) (or (<= (+ x14 0.0128660096) x10) (or (>= (- y10 0.1896519478) y14) (or (>= (- y14 0.0532869813) y10))))) 
(and (or (<= (+ x11 0.9411756726) x12) (or (<= (+ x12 0.8377326776) x11) (or (>= (- y11 0.1811798722) y12) (or (>= (- y12 0.0940270185) y11))))) 
(and (or (<= (+ x11 0.9411756726) x13) (or (<= (+ x13 0.9392153038) x11) (or (>= (- y11 0.1811798722) y13) (or (>= (- y13 0.0849663566) y11))))) 
(and (or (<= (+ x11 0.9411756726) x14) (or (<= (+ x14 0.0128660096) x11) (or (>= (- y11 0.1811798722) y14) (or (>= (- y14 0.0532869813) y11))))) 
(and (or (<= (+ x12 0.8377326776) x13) (or (<= (+ x13 0.9392153038) x12) (or (>= (- y12 0.0940270185) y13) (or (>= (- y13 0.0849663566) y12))))) 
(and (or (<= (+ x12 0.8377326776) x14) (or (<= (+ x14 0.0128660096) x12) (or (>= (- y12 0.0940270185) y14) (or (>= (- y14 0.0532869813) y12))))) 
(and (or (<= (+ x13 0.9392153038) x14) (or (<= (+ x14 0.0128660096) x13) (or (>= (- y13 0.0849663566) y14) (or (>= (- y14 0.0532869813) y13))))) )))))))))))))))))))))))))))))))))))))))))))))))))))))))))))))))))))))))))))))))))))))))))))))))))))))))))))))))))))))))))))))))))))))))))))))))))))))))))))))))))))))))))))))))))))))))))))))))))))))))))))))))))))))))
(minimize c)
(check-sat)
(get-objectives)
(exit)
